ampl/minesweeper9.dat
# Problem from Gecode/examples/minesweeper.cc  problem 9

param r := 9;
param c := 9;
param game: 1 2 3 4 5 6 7 8 9 :=
    1   2 . . . 2 . . . 2 
    2   . 4 . 4 . 3 . 4 . 
    3   . . 4 . . . 1 . . 
    4   . 4 . 3 . 3 . 4 . 
    5   2 . . . . . . . 2 
    6   . 5 . 4 . 5 . 4 . 
    7   . . 3 . . . 3 . . 
    8   . 4 . 3 . 5 . 6 . 
    9   2 . . . 1 . . . 2 
;
